NAME :
TYPE : CCVRP
COMMENT :
DIMENSION : 481
CAPACITY : 1000
EDGE_WEIGHT_TYPE : EUC_2D_DBL
NODE_COORD_TYPE: TWOD_COORD
NODE_COORD_SECTION
1 0.0000 0.0000
2 3.0000 1.0000
3 3.0000 3.0000
4 1.0000 3.0000
5 -1.0000 3.0000
6 -3.0000 3.0000
7 -3.0000 1.0000
8 -3.0000 -1.0000
9 -3.0000 -3.0000
10 -1.0000 -3.0000
11 1.0000 -3.0000
12 3.0000 -3.0000
13 3.0000 -1.0000
14 5.0000 1.0000
15 5.0000 3.0000
16 5.0000 5.0000
17 3.0000 5.0000
18 1.0000 5.0000
19 -1.0000 5.0000
20 -3.0000 5.0000
21 -5.0000 5.0000
22 -5.0000 3.0000
23 -5.0000 1.0000
24 -5.0000 -1.0000
25 -5.0000 -3.0000
26 -5.0000 -5.0000
27 -3.0000 -5.0000
28 -1.0000 -5.0000
29 1.0000 -5.0000
30 3.0000 -5.0000
31 5.0000 -5.0000
32 5.0000 -3.0000
33 5.0000 -1.0000
34 7.0000 1.0000
35 7.0000 3.0000
36 7.0000 5.0000
37 7.0000 7.0000
38 5.0000 7.0000
39 3.0000 7.0000
40 1.0000 7.0000
41 -1.0000 7.0000
42 -3.0000 7.0000
43 -5.0000 7.0000
44 -7.0000 7.0000
45 -7.0000 5.0000
46 -7.0000 3.0000
47 -7.0000 1.0000
48 -7.0000 -1.0000
49 -7.0000 -3.0000
50 -7.0000 -5.0000
51 -7.0000 -7.0000
52 -5.0000 -7.0000
53 -3.0000 -7.0000
54 -1.0000 -7.0000
55 1.0000 -7.0000
56 3.0000 -7.0000
57 5.0000 -7.0000
58 7.0000 -7.0000
59 7.0000 -5.0000
60 7.0000 -3.0000
61 7.0000 -1.0000
62 9.0000 1.0000
63 9.0000 3.0000
64 9.0000 5.0000
65 9.0000 7.0000
66 9.0000 9.0000
67 7.0000 9.0000
68 5.0000 9.0000
69 3.0000 9.0000
70 1.0000 9.0000
71 -1.0000 9.0000
72 -3.0000 9.0000
73 -5.0000 9.0000
74 -7.0000 9.0000
75 -9.0000 9.0000
76 -9.0000 7.0000
77 -9.0000 5.0000
78 -9.0000 3.0000
79 -9.0000 1.0000
80 -9.0000 -1.0000
81 -9.0000 -3.0000
82 -9.0000 -5.0000
83 -9.0000 -7.0000
84 -9.0000 -9.0000
85 -7.0000 -9.0000
86 -5.0000 -9.0000
87 -3.0000 -9.0000
88 -1.0000 -9.0000
89 1.0000 -9.0000
90 3.0000 -9.0000
91 5.0000 -9.0000
92 7.0000 -9.0000
93 9.0000 -9.0000
94 9.0000 -7.0000
95 9.0000 -5.0000
96 9.0000 -3.0000
97 9.0000 -1.0000
98 11.0000 1.0000
99 11.0000 3.0000
100 11.0000 5.0000
101 11.0000 7.0000
102 11.0000 9.0000
103 11.0000 11.0000
104 9.0000 11.0000
105 7.0000 11.0000
106 5.0000 11.0000
107 3.0000 11.0000
108 1.0000 11.0000
109 -1.0000 11.0000
110 -3.0000 11.0000
111 -5.0000 11.0000
112 -7.0000 11.0000
113 -9.0000 11.0000
114 -11.0000 11.0000
115 -11.0000 9.0000
116 -11.0000 7.0000
117 -11.0000 5.0000
118 -11.0000 3.0000
119 -11.0000 1.0000
120 -11.0000 -1.0000
121 -11.0000 -3.0000
122 -11.0000 -5.0000
123 -11.0000 -7.0000
124 -11.0000 -9.0000
125 -11.0000 -11.0000
126 -9.0000 -11.0000
127 -7.0000 -11.0000
128 -5.0000 -11.0000
129 -3.0000 -11.0000
130 -1.0000 -11.0000
131 1.0000 -11.0000
132 3.0000 -11.0000
133 5.0000 -11.0000
134 7.0000 -11.0000
135 9.0000 -11.0000
136 11.0000 -11.0000
137 11.0000 -9.0000
138 11.0000 -7.0000
139 11.0000 -5.0000
140 11.0000 -3.0000
141 11.0000 -1.0000
142 13.0000 1.0000
143 13.0000 3.0000
144 13.0000 5.0000
145 13.0000 7.0000
146 13.0000 9.0000
147 13.0000 11.0000
148 13.0000 13.0000
149 11.0000 13.0000
150 9.0000 13.0000
151 7.0000 13.0000
152 5.0000 13.0000
153 3.0000 13.0000
154 1.0000 13.0000
155 -1.0000 13.0000
156 -3.0000 13.0000
157 -5.0000 13.0000
158 -7.0000 13.0000
159 -9.0000 13.0000
160 -11.0000 13.0000
161 -13.0000 13.0000
162 -13.0000 11.0000
163 -13.0000 9.0000
164 -13.0000 7.0000
165 -13.0000 5.0000
166 -13.0000 3.0000
167 -13.0000 1.0000
168 -13.0000 -1.0000
169 -13.0000 -3.0000
170 -13.0000 -5.0000
171 -13.0000 -7.0000
172 -13.0000 -9.0000
173 -13.0000 -11.0000
174 -13.0000 -13.0000
175 -11.0000 -13.0000
176 -9.0000 -13.0000
177 -7.0000 -13.0000
178 -5.0000 -13.0000
179 -3.0000 -13.0000
180 -1.0000 -13.0000
181 1.0000 -13.0000
182 3.0000 -13.0000
183 5.0000 -13.0000
184 7.0000 -13.0000
185 9.0000 -13.0000
186 11.0000 -13.0000
187 13.0000 -13.0000
188 13.0000 -11.0000
189 13.0000 -9.0000
190 13.0000 -7.0000
191 13.0000 -5.0000
192 13.0000 -3.0000
193 13.0000 -1.0000
194 15.0000 1.0000
195 15.0000 3.0000
196 15.0000 5.0000
197 15.0000 7.0000
198 15.0000 9.0000
199 15.0000 11.0000
200 15.0000 13.0000
201 15.0000 15.0000
202 13.0000 15.0000
203 11.0000 15.0000
204 9.0000 15.0000
205 7.0000 15.0000
206 5.0000 15.0000
207 3.0000 15.0000
208 1.0000 15.0000
209 -1.0000 15.0000
210 -3.0000 15.0000
211 -5.0000 15.0000
212 -7.0000 15.0000
213 -9.0000 15.0000
214 -11.0000 15.0000
215 -13.0000 15.0000
216 -15.0000 15.0000
217 -15.0000 13.0000
218 -15.0000 11.0000
219 -15.0000 9.0000
220 -15.0000 7.0000
221 -15.0000 5.0000
222 -15.0000 3.0000
223 -15.0000 1.0000
224 -15.0000 -1.0000
225 -15.0000 -3.0000
226 -15.0000 -5.0000
227 -15.0000 -7.0000
228 -15.0000 -9.0000
229 -15.0000 -11.0000
230 -15.0000 -13.0000
231 -15.0000 -15.0000
232 -13.0000 -15.0000
233 -11.0000 -15.0000
234 -9.0000 -15.0000
235 -7.0000 -15.0000
236 -5.0000 -15.0000
237 -3.0000 -15.0000
238 -1.0000 -15.0000
239 1.0000 -15.0000
240 3.0000 -15.0000
241 5.0000 -15.0000
242 7.0000 -15.0000
243 9.0000 -15.0000
244 11.0000 -15.0000
245 13.0000 -15.0000
246 15.0000 -15.0000
247 15.0000 -13.0000
248 15.0000 -11.0000
249 15.0000 -9.0000
250 15.0000 -7.0000
251 15.0000 -5.0000
252 15.0000 -3.0000
253 15.0000 -1.0000
254 17.0000 1.0000
255 17.0000 3.0000
256 17.0000 5.0000
257 17.0000 7.0000
258 17.0000 9.0000
259 17.0000 11.0000
260 17.0000 13.0000
261 17.0000 15.0000
262 17.0000 17.0000
263 15.0000 17.0000
264 13.0000 17.0000
265 11.0000 17.0000
266 9.0000 17.0000
267 7.0000 17.0000
268 5.0000 17.0000
269 3.0000 17.0000
270 1.0000 17.0000
271 -1.0000 17.0000
272 -3.0000 17.0000
273 -5.0000 17.0000
274 -7.0000 17.0000
275 -9.0000 17.0000
276 -11.0000 17.0000
277 -13.0000 17.0000
278 -15.0000 17.0000
279 -17.0000 17.0000
280 -17.0000 15.0000
281 -17.0000 13.0000
282 -17.0000 11.0000
283 -17.0000 9.0000
284 -17.0000 7.0000
285 -17.0000 5.0000
286 -17.0000 3.0000
287 -17.0000 1.0000
288 -17.0000 -1.0000
289 -17.0000 -3.0000
290 -17.0000 -5.0000
291 -17.0000 -7.0000
292 -17.0000 -9.0000
293 -17.0000 -11.0000
294 -17.0000 -13.0000
295 -17.0000 -15.0000
296 -17.0000 -17.0000
297 -15.0000 -17.0000
298 -13.0000 -17.0000
299 -11.0000 -17.0000
300 -9.0000 -17.0000
301 -7.0000 -17.0000
302 -5.0000 -17.0000
303 -3.0000 -17.0000
304 -1.0000 -17.0000
305 1.0000 -17.0000
306 3.0000 -17.0000
307 5.0000 -17.0000
308 7.0000 -17.0000
309 9.0000 -17.0000
310 11.0000 -17.0000
311 13.0000 -17.0000
312 15.0000 -17.0000
313 17.0000 -17.0000
314 17.0000 -15.0000
315 17.0000 -13.0000
316 17.0000 -11.0000
317 17.0000 -9.0000
318 17.0000 -7.0000
319 17.0000 -5.0000
320 17.0000 -3.0000
321 17.0000 -1.0000
322 19.0000 1.0000
323 19.0000 3.0000
324 19.0000 5.0000
325 19.0000 7.0000
326 19.0000 9.0000
327 19.0000 11.0000
328 19.0000 13.0000
329 19.0000 15.0000
330 19.0000 17.0000
331 19.0000 19.0000
332 17.0000 19.0000
333 15.0000 19.0000
334 13.0000 19.0000
335 11.0000 19.0000
336 9.0000 19.0000
337 7.0000 19.0000
338 5.0000 19.0000
339 3.0000 19.0000
340 1.0000 19.0000
341 -1.0000 19.0000
342 -3.0000 19.0000
343 -5.0000 19.0000
344 -7.0000 19.0000
345 -9.0000 19.0000
346 -11.0000 19.0000
347 -13.0000 19.0000
348 -15.0000 19.0000
349 -17.0000 19.0000
350 -19.0000 19.0000
351 -19.0000 17.0000
352 -19.0000 15.0000
353 -19.0000 13.0000
354 -19.0000 11.0000
355 -19.0000 9.0000
356 -19.0000 7.0000
357 -19.0000 5.0000
358 -19.0000 3.0000
359 -19.0000 1.0000
360 -19.0000 -1.0000
361 -19.0000 -3.0000
362 -19.0000 -5.0000
363 -19.0000 -7.0000
364 -19.0000 -9.0000
365 -19.0000 -11.0000
366 -19.0000 -13.0000
367 -19.0000 -15.0000
368 -19.0000 -17.0000
369 -19.0000 -19.0000
370 -17.0000 -19.0000
371 -15.0000 -19.0000
372 -13.0000 -19.0000
373 -11.0000 -19.0000
374 -9.0000 -19.0000
375 -7.0000 -19.0000
376 -5.0000 -19.0000
377 -3.0000 -19.0000
378 -1.0000 -19.0000
379 1.0000 -19.0000
380 3.0000 -19.0000
381 5.0000 -19.0000
382 7.0000 -19.0000
383 9.0000 -19.0000
384 11.0000 -19.0000
385 13.0000 -19.0000
386 15.0000 -19.0000
387 17.0000 -19.0000
388 19.0000 -19.0000
389 19.0000 -17.0000
390 19.0000 -15.0000
391 19.0000 -13.0000
392 19.0000 -11.0000
393 19.0000 -9.0000
394 19.0000 -7.0000
395 19.0000 -5.0000
396 19.0000 -3.0000
397 19.0000 -1.0000
398 21.0000 1.0000
399 21.0000 3.0000
400 21.0000 5.0000
401 21.0000 7.0000
402 21.0000 9.0000
403 21.0000 11.0000
404 21.0000 13.0000
405 21.0000 15.0000
406 21.0000 17.0000
407 21.0000 19.0000
408 21.0000 21.0000
409 19.0000 21.0000
410 17.0000 21.0000
411 15.0000 21.0000
412 13.0000 21.0000
413 11.0000 21.0000
414 9.0000 21.0000
415 7.0000 21.0000
416 5.0000 21.0000
417 3.0000 21.0000
418 1.0000 21.0000
419 -1.0000 21.0000
420 -3.0000 21.0000
421 -5.0000 21.0000
422 -7.0000 21.0000
423 -9.0000 21.0000
424 -11.0000 21.0000
425 -13.0000 21.0000
426 -15.0000 21.0000
427 -17.0000 21.0000
428 -19.0000 21.0000
429 -21.0000 21.0000
430 -21.0000 19.0000
431 -21.0000 17.0000
432 -21.0000 15.0000
433 -21.0000 13.0000
434 -21.0000 11.0000
435 -21.0000 9.0000
436 -21.0000 7.0000
437 -21.0000 5.0000
438 -21.0000 3.0000
439 -21.0000 1.0000
440 -21.0000 -1.0000
441 -21.0000 -3.0000
442 -21.0000 -5.0000
443 -21.0000 -7.0000
444 -21.0000 -9.0000
445 -21.0000 -11.0000
446 -21.0000 -13.0000
447 -21.0000 -15.0000
448 -21.0000 -17.0000
449 -21.0000 -19.0000
450 -21.0000 -21.0000
451 -19.0000 -21.0000
452 -17.0000 -21.0000
453 -15.0000 -21.0000
454 -13.0000 -21.0000
455 -11.0000 -21.0000
456 -9.0000 -21.0000
457 -7.0000 -21.0000
458 -5.0000 -21.0000
459 -3.0000 -21.0000
460 -1.0000 -21.0000
461 1.0000 -21.0000
462 3.0000 -21.0000
463 5.0000 -21.0000
464 7.0000 -21.0000
465 9.0000 -21.0000
466 11.0000 -21.0000
467 13.0000 -21.0000
468 15.0000 -21.0000
469 17.0000 -21.0000
470 19.0000 -21.0000
471 21.0000 -21.0000
472 21.0000 -19.0000
473 21.0000 -17.0000
474 21.0000 -15.0000
475 21.0000 -13.0000
476 21.0000 -11.0000
477 21.0000 -9.0000
478 21.0000 -7.0000
479 21.0000 -5.0000
480 21.0000 -3.0000
481 21.0000 -1.0000
DEMAND_SECTION
1 0
2 300
3 300
4 300
5 300
6 300
7 300
8 300
9 300
10 300
11 300
12 300
13 300
14 180
15 180
16 180
17 180
18 180
19 180
20 180
21 180
22 180
23 180
24 180
25 180
26 180
27 180
28 180
29 180
30 180
31 180
32 180
33 180
34 128
35 128
36 128
37 128
38 128
39 128
40 128
41 128
42 128
43 128
44 128
45 128
46 128
47 128
48 128
49 128
50 128
51 128
52 128
53 128
54 128
55 128
56 128
57 128
58 128
59 128
60 128
61 128
62 100
63 100
64 100
65 100
66 100
67 100
68 100
69 100
70 100
71 100
72 100
73 100
74 100
75 100
76 100
77 100
78 100
79 100
80 100
81 100
82 100
83 100
84 100
85 100
86 100
87 100
88 100
89 100
90 100
91 100
92 100
93 100
94 100
95 100
96 100
97 100
98 81
99 81
100 81
101 81
102 81
103 81
104 81
105 81
106 81
107 81
108 81
109 81
110 81
111 81
112 81
113 81
114 81
115 81
116 81
117 81
118 81
119 81
120 81
121 81
122 81
123 81
124 81
125 81
126 81
127 81
128 81
129 81
130 81
131 81
132 81
133 81
134 81
135 81
136 81
137 81
138 81
139 81
140 81
141 81
142 69
143 69
144 69
145 69
146 69
147 69
148 69
149 69
150 69
151 69
152 69
153 69
154 69
155 69
156 69
157 69
158 69
159 69
160 69
161 69
162 69
163 69
164 69
165 69
166 69
167 69
168 69
169 69
170 69
171 69
172 69
173 69
174 69
175 69
176 69
177 69
178 69
179 69
180 69
181 69
182 69
183 69
184 69
185 69
186 69
187 69
188 69
189 69
190 69
191 69
192 69
193 69
194 60
195 60
196 60
197 60
198 60
199 60
200 60
201 60
202 60
203 60
204 60
205 60
206 60
207 60
208 60
209 60
210 60
211 60
212 60
213 60
214 60
215 60
216 60
217 60
218 60
219 60
220 60
221 60
222 60
223 60
224 60
225 60
226 60
227 60
228 60
229 60
230 60
231 60
232 60
233 60
234 60
235 60
236 60
237 60
238 60
239 60
240 60
241 60
242 60
243 60
244 60
245 60
246 60
247 60
248 60
249 60
250 60
251 60
252 60
253 60
254 52
255 52
256 52
257 52
258 52
259 52
260 52
261 52
262 52
263 52
264 52
265 52
266 52
267 52
268 52
269 52
270 52
271 52
272 52
273 52
274 52
275 52
276 52
277 52
278 52
279 52
280 52
281 52
282 52
283 52
284 52
285 52
286 52
287 52
288 52
289 52
290 52
291 52
292 52
293 52
294 52
295 52
296 52
297 52
298 52
299 52
300 52
301 52
302 52
303 52
304 52
305 52
306 52
307 52
308 52
309 52
310 52
311 52
312 52
313 52
314 52
315 52
316 52
317 52
318 52
319 52
320 52
321 52
322 47
323 47
324 47
325 47
326 47
327 47
328 47
329 47
330 47
331 47
332 47
333 47
334 47
335 47
336 47
337 47
338 47
339 47
340 47
341 47
342 47
343 47
344 47
345 47
346 47
347 47
348 47
349 47
350 47
351 47
352 47
353 47
354 47
355 47
356 47
357 47
358 47
359 47
360 47
361 47
362 47
363 47
364 47
365 47
366 47
367 47
368 47
369 47
370 47
371 47
372 47
373 47
374 47
375 47
376 47
377 47
378 47
379 47
380 47
381 47
382 47
383 47
384 47
385 47
386 47
387 47
388 47
389 47
390 47
391 47
392 47
393 47
394 47
395 47
396 47
397 47
398 42
399 42
400 42
401 42
402 42
403 42
404 42
405 42
406 42
407 42
408 42
409 42
410 42
411 42
412 42
413 42
414 42
415 42
416 42
417 42
418 42
419 42
420 42
421 42
422 42
423 42
424 42
425 42
426 42
427 42
428 42
429 42
430 42
431 42
432 42
433 42
434 42
435 42
436 42
437 42
438 42
439 42
440 42
441 42
442 42
443 42
444 42
445 42
446 42
447 42
448 42
449 42
450 42
451 42
452 42
453 42
454 42
455 42
456 42
457 42
458 42
459 42
460 42
461 42
462 42
463 42
464 42
465 42
466 42
467 42
468 42
469 42
470 42
471 42
472 42
473 42
474 42
475 42
476 42
477 42
478 42
479 42
480 42
481 42
CLUSTER_SECTION
1 138
2 11
3 12
4 10
5 9
6 13
7 8
8 7
9 14
10 6
11 5
12 4
13 15
14 16
15 17
16 18
17 19
18 20
19 21
20 22
21 23
22 24
23 25
24 26
25 27
26 28
27 29
28 30
29 31
30 32
31 3
32 33
33 34
34 35
35 35
36 36
37 36
38 37
39 37
40 38
41 38
42 39
43 39
44 40
45 40
46 41
47 41
48 42
49 42
50 43
51 43
52 44
53 44
54 45
55 45
56 46
57 46
58 2
59 47
60 47
61 48
62 48
63 49
64 49
65 50
66 50
67 50
68 51
69 51
70 52
71 52
72 53
73 53
74 54
75 54
76 54
77 55
78 55
79 56
80 56
81 57
82 57
83 58
84 58
85 58
86 59
87 59
88 60
89 60
90 61
91 61
92 62
93 1
94 62
95 63
96 63
97 64
98 49
99 65
100 65
101 66
102 66
103 67
104 67
105 51
106 68
107 52
108 69
109 53
110 69
111 70
112 70
113 71
114 71
115 71
116 55
117 72
118 56
119 73
120 57
121 73
122 74
123 74
124 75
125 75
126 75
127 59
128 76
129 60
130 77
131 61
132 77
133 62
134 78
135 1
136 1
137 79
138 63
139 80
140 64
141 64
142 65
143 65
144 66
145 66
146 67
147 67
148 81
149 81
150 82
151 68
152 68
153 68
154 69
155 69
156 70
157 70
158 83
159 83
160 84
161 84
162 84
163 85
164 72
165 72
166 72
167 73
168 73
169 74
170 74
171 86
172 86
173 87
174 87
175 87
176 88
177 76
178 76
179 76
180 77
181 77
182 89
183 78
184 78
185 78
186 90
187 90
188 79
189 79
190 79
191 80
192 80
193 80
194 91
195 91
196 92
197 92
198 92
199 81
200 81
201 93
202 93
203 82
204 82
205 82
206 94
207 94
208 95
209 95
210 95
211 83
212 83
213 84
214 96
215 96
216 97
217 97
218 85
219 85
220 85
221 98
222 98
223 99
224 99
225 99
226 86
227 86
228 87
229 100
230 100
231 101
232 101
233 88
234 88
235 88
236 102
237 102
238 103
239 89
240 89
241 89
242 104
243 90
244 90
245 105
246 105
247 105
248 106
249 106
250 107
251 107
252 107
253 91
254 91
255 91
256 92
257 92
258 108
259 108
260 93
261 93
262 93
263 109
264 109
265 109
266 110
267 94
268 94
269 94
270 95
271 95
272 111
273 111
274 111
275 96
276 96
277 96
278 97
279 97
280 97
281 112
282 112
283 112
284 98
285 98
286 98
287 99
288 99
289 113
290 113
291 113
292 100
293 100
294 100
295 101
296 101
297 101
298 114
299 114
300 114
301 102
302 102
303 102
304 103
305 103
306 103
307 104
308 104
309 104
310 104
311 105
312 105
313 115
314 115
315 106
316 106
317 106
318 107
319 107
320 116
321 116
322 116
323 117
324 108
325 108
326 108
327 108
328 118
329 118
330 118
331 119
332 109
333 109
334 109
335 110
336 110
337 110
338 110
339 120
340 120
341 111
342 111
343 111
344 121
345 121
346 121
347 122
348 122
349 122
350 123
351 123
352 112
353 112
354 112
355 124
356 124
357 124
358 125
359 125
360 113
361 113
362 113
363 126
364 126
365 126
366 127
367 127
368 127
369 128
370 128
371 114
372 114
373 114
374 129
375 129
376 129
377 103
378 130
379 130
380 130
381 131
382 131
383 131
384 132
385 132
386 115
387 115
388 115
389 115
390 133
391 133
392 133
393 134
394 134
395 116
396 116
397 116
398 117
399 117
400 117
401 117
402 117
403 118
404 118
405 118
406 119
407 119
408 119
409 119
410 119
411 119
412 135
413 110
414 135
415 120
416 120
417 120
418 120
419 135
420 135
421 121
422 121
423 121
424 122
425 122
426 122
427 123
428 123
429 123
430 123
431 135
432 135
433 136
434 124
435 124
436 124
437 125
438 125
439 125
440 125
441 136
442 126
443 126
444 126
445 127
446 127
447 127
448 128
449 128
450 128
451 128
452 136
453 136
454 136
455 129
456 129
457 129
458 136
459 130
460 130
461 130
462 131
463 131
464 131
465 132
466 132
467 132
468 132
469 136
470 137
471 137
472 137
473 133
474 133
475 133
476 134
477 134
478 134
479 134
480 135
481 117
DEPOT_SECTION
1
-1
EOF
